20	5
0	3	1	3	2
1	3	19	8	17
2	8	13	15	16	18	14	19	12	20
3	3	19	4	5
4	3	15	18	20
5	1	6
6	1	10
7	4	13	17	18	14
8	2	14	11
9	3	12	7	16
10	2	15	9
11	1	4
12	1	21
13	1	21
14	1	21
15	1	21
16	1	21
17	1	21
18	1	21
19	1	21
20	1	21
21	0
0	0	0	0	0	0	0
1	8	0	0	4	1	5
2	9	5	3	0	4	2
3	7	1	4	0	3	1
4	10	4	3	2	0	1
5	3	1	0	0	2	3
6	10	5	1	0	4	5
7	9	2	3	3	4	4
8	6	1	4	0	0	4
9	7	2	0	1	3	4
10	5	5	3	3	1	1
11	2	2	3	3	1	0
12	6	4	5	3	5	5
13	1	0	2	5	0	0
14	5	0	5	4	5	0
15	5	3	2	3	5	0
16	7	5	1	3	3	2
17	9	0	1	0	0	2
18	1	4	1	3	2	1
19	4	5	2	5	0	0
20	10	0	1	4	3	0
21	0	0	0	0	0	0
5	5	5	5	5
